11
[[-1, 11352, 21572, 13604, 34694, 29232, 45981, 25777, 44081, 39392, 45988],[11352, -1, 15931, 45150, 28392, 45855, 33721, 21136, 45527, 5217, 27550],[21572, 15931, -1, 38868, 22166, 39117, 21629, 30973, 24297, 41608, 25612],[13604, 45150, 38868, -1, 29475, 39850, 42117, 31639, 16827, 7564, 44932],[34694, 28392, 22166, 29475, -1, 43248, 39215, 19442, 34873, 27368, 36831],[29232, 45855, 39117, 39850, 43248, -1, 28998, 25933, 6604, 40977, 33238],[45981, 33721, 21629, 42117, 39215, 28998, -1, 26647, 22315, 26379, 43475],[25777, 21136, 30973, 31639, 19442, 25933, 26647, -1, 25640, 45831, 24617],[44081, 45527, 24297, 16827, 34873, 6604, 22315, 25640, -1, 44726, 27998],[39392, 5217, 41608, 7564, 27368, 40977, 26379, 45831, 44726, -1, 43863],[45988, 27550, 25612, 44932, 36831, 33238, 43475, 24617, 27998, 43863, -1]]